o 1  1 0
o 2  -1 2 0
a 10  2 0  l 1 2 0
d 2  -1 2 0
o 3  -2 3 0
a 11  3 0  l 10 3 0
d 3  -2 3 0
o 4  -3 4 0
a 12  4 0  l 11 4 0
d 4  -3 4 0
o 5  -4 5 0
a 13  5 0  l 12 5 0
d 5  -4 5 0
o 6  -5 6 0
a 14  6 0  l 13 6 0
d 6  -5 6 0
o 7  -6 7 0
a 15  7 0  l 14 7 0
d 7  -6 7 0
o 8  -7 8 0
a 16  8 0  l 15 8 0
d 8  -7 8 0
o 9  -8 0
a 17  0  l 16 9 0
d 9  -8 0
f 1  1 0
f 10  2 0
f 11  3 0
f 12  4 0
f 13  5 0
f 14  6 0
f 15  7 0
f 16  8 0
f 17  0
